
******************************************************************************
This program contains Ipopt, a library for large-scale nonlinear optimization.
 Ipopt is released as open source code under the Eclipse Public License (EPL).
         For more information visit http://projects.coin-or.org/Ipopt
******************************************************************************

This is Ipopt version 3.12.13, running with linear solver mumps.
NOTE: Other linear solvers might be more efficient (see Ipopt documentation).

Number of nonzeros in equality constraint Jacobian...:      367
Number of nonzeros in inequality constraint Jacobian.:      108
Number of nonzeros in Lagrangian Hessian.............:      137

Total number of variables............................:       86
                     variables with only lower bounds:       16
                variables with lower and upper bounds:       42
                     variables with only upper bounds:        0
Total number of equality constraints.................:       78
Total number of inequality constraints...............:       28
        inequality constraints with only lower bounds:        0
   inequality constraints with lower and upper bounds:        0
        inequality constraints with only upper bounds:       28

iter    objective    inf_pr   inf_du lg(mu)  ||d||  lg(rg) alpha_du alpha_pr  ls
   0  1.0875590e+03 8.71e-06 1.00e+02   0.0 0.00e+00    -  0.00e+00 0.00e+00   0
   1  1.0875585e+03 8.71e-06 2.08e+03  -4.4 2.61e-03    -  9.80e-01 5.63e-04f  1
   2  1.0876791e+03 7.24e-06 8.35e+04  -1.0 5.04e+00    -  1.00e+00 1.67e-01f  1
   3  1.0880988e+03 4.35e-08 4.60e+01  -1.1 3.31e-01    -  1.00e+00 1.00e+00H  1
   4  1.0876263e+03 1.92e-05 5.73e+00  -2.1 2.61e-02    -  1.00e+00 1.00e+00f  1
   5  1.0875994e+03 4.27e-07 1.89e-02  -2.2 6.35e-02    -  1.00e+00 1.00e+00h  1
   6  1.0875595e+03 2.15e-07 3.90e+03  -8.2 2.87e-03    -  9.93e-01 1.00e+00f  1
   7  1.0875592e+03 7.45e-11 1.14e-06  -5.0 4.21e-01    -  1.00e+00 1.00e+00h  1
   8  1.0875590e+03 4.36e-12 1.05e-07  -5.8 4.15e-01    -  1.00e+00 1.00e+00f  1
   9  1.0875590e+03 1.29e-12 1.05e+00  -7.3 7.82e-02    -  9.94e-01 1.00e+00f  1
iter    objective    inf_pr   inf_du lg(mu)  ||d||  lg(rg) alpha_du alpha_pr  ls
  10  1.0875590e+03 2.07e-12 1.16e-02  -9.1 2.23e-03    -  1.00e+00 9.97e-01h  1
  11  1.0875590e+03 1.94e-12 4.06e-10 -11.0 2.23e-05    -  1.00e+00 1.00e+00h  1

Number of Iterations....: 11

                                   (scaled)                 (unscaled)
Objective...............:   4.7151571260176956e+02    1.0875589630903742e+03
Dual infeasibility......:   4.0603213631718048e-10    9.3651998725105708e-10
Constraint violation....:   2.3536728122053319e-14    1.9376385052000412e-12
Complementarity.........:   1.0015604656798312e-11    2.3101161475970327e-11
Overall NLP error.......:   1.7371611428985925e-10    9.3651998725105708e-10


Number of objective function evaluations             = 13
Number of objective gradient evaluations             = 12
Number of equality constraint evaluations            = 13
Number of inequality constraint evaluations          = 13
Number of equality constraint Jacobian evaluations   = 12
Number of inequality constraint Jacobian evaluations = 12
Number of Lagrangian Hessian evaluations             = 11
Total CPU secs in IPOPT (w/o function evaluations)   =      0.008
Total CPU secs in NLP function evaluations           =      0.000

EXIT: Optimal Solution Found.
